32	0

0	1	2
10	1	3
4	2	4	5
5	2	6	7
5	2	6	7
8	1	8
7	1	8
4	1	9
5	2	10	12
4	1	11
4	1	13
10	1	13
6	1	14
3	1	15
7	2	16	17
2	1	18
7	1	18
3	2	19	20
5	1	21
6	1	21
3	2	22	23
1	1	24
1	1	24
7	1	25
1	1	26
6	1	27
5	1	28
2	1	29
8	1	30
2	1	31
2	1	32
0	0
